p tw 176 39601 2 
1 3 
1 4 
1 5 
1 6 
1 7 
1 8 
1 9 
1 10 
1 11 
1 12 
1 13 
1 14 
1 15 
1 16 
1 17 
1 18 
1 19 
1 20 
1 21 
1 22 
1 23 
1 24 
1 25 
1 26 
1 27 
1 28 
1 29 
1 30 
1 31 
1 34 
1 47 
1 59 
1 71 
1 72 
1 73 
1 74 
1 75 
1 76 
1 77 
1 78 
1 79 
1 80 
1 81 
1 82 
2 3 
2 4 
2 5 
2 6 
2 7 
2 8 
2 9 
2 10 
2 11 
2 12 
2 13 
2 14 
2 15 
2 16 
2 17 
2 22 
2 32 
2 33 
2 34 
2 35 
2 36 
2 37 
2 38 
2 39 
2 40 
2 41 
2 42 
2 43 
2 44 
2 45 
2 47 
2 62 
2 84 
2 94 
2 103 
2 104 
2 105 
2 106 
2 107 
2 108 
2 109 
2 110 
2 111 
2 112 
3 4 
3 5 
3 6 
3 7 
3 8 
3 9 
3 10 
3 11 
3 12 
3 13 
3 14 
3 15 
3 16 
3 18 
3 23 
3 32 
3 35 
3 46 
3 47 
3 48 
3 49 
3 50 
3 51 
3 52 
3 53 
3 54 
3 55 
3 56 
3 57 
3 58 
3 63 
3 81 
3 86 
3 109 
3 133 
3 141 
3 148 
3 151 
3 159 
3 160 
3 167 
3 168 
3 169 
4 5 
4 6 
4 7 
4 8 
4 9 
4 10 
4 11 
4 12 
4 13 
4 14 
4 15 
4 16 
4 19 
4 28 
4 33 
4 44 
4 46 
4 54 
4 59 
4 60 
4 61 
4 62 
4 63 
4 64 
4 65 
4 66 
4 67 
4 68 
4 69 
4 70 
4 82 
4 91 
4 98 
4 111 
4 115 
4 122 
4 133 
4 158 
4 163 
4 170 
4 172 
4 173 
5 6 
5 7 
5 8 
5 9 
5 10 
5 11 
5 12 
5 13 
5 14 
5 15 
5 16 
5 20 
5 23 
5 32 
5 36 
5 49 
5 60 
5 61 
5 71 
5 73 
5 83 
5 84 
5 85 
5 86 
5 87 
5 88 
5 89 
5 90 
5 91 
5 92 
5 93 
5 103 
5 113 
5 114 
5 115 
5 116 
5 117 
5 118 
5 119 
5 120 
5 121 
6 7 
6 8 
6 9 
6 10 
6 11 
6 12 
6 13 
6 14 
6 15 
6 16 
6 21 
6 28 
6 33 
6 35 
6 48 
6 55 
6 61 
6 72 
6 79 
6 83 
6 85 
6 94 
6 95 
6 96 
6 97 
6 98 
6 99 
6 100 
6 101 
6 102 
6 107 
6 118 
6 131 
6 138 
6 141 
6 150 
6 154 
6 155 
6 156 
6 157 
7 8 
7 9 
7 10 
7 11 
7 12 
7 13 
7 14 
7 15 
7 16 
7 18 
7 24 
7 34 
7 37 
7 50 
7 63 
7 70 
7 74 
7 85 
7 92 
7 94 
7 99 
7 104 
7 113 
7 121 
7 122 
7 123 
7 124 
7 125 
7 126 
7 127 
7 128 
7 140 
7 144 
7 145 
7 157 
7 162 
7 163 
7 169 
7 171 
8 9 
8 10 
8 11 
8 12 
8 13 
8 14 
8 15 
8 16 
8 25 
8 26 
8 38 
8 39 
8 50 
8 53 
8 64 
8 67 
8 71 
8 77 
8 88 
8 95 
8 98 
8 104 
8 107 
8 114 
8 116 
8 123 
8 129 
8 130 
8 131 
8 132 
8 133 
8 134 
8 135 
8 145 
8 146 
8 147 
8 148 
8 149 
9 10 
9 11 
9 12 
9 13 
9 14 
9 15 
9 16 
9 24 
9 25 
9 39 
9 45 
9 51 
9 58 
9 65 
9 67 
9 75 
9 76 
9 86 
9 90 
9 96 
9 100 
9 105 
9 112 
9 115 
9 121 
9 128 
9 129 
9 136 
9 137 
9 138 
9 139 
9 140 
9 150 
9 159 
9 165 
9 170 
9 174 
10 11 
10 12 
10 13 
10 14 
10 15 
10 16 
10 26 
10 30 
10 40 
10 41 
10 49 
10 52 
10 62 
10 66 
10 72 
10 76 
10 87 
10 92 
10 97 
10 106 
10 114 
10 122 
10 124 
10 129 
10 136 
10 141 
10 142 
10 143 
10 144 
10 149 
10 152 
10 156 
10 164 
10 167 
10 172 
10 174 
11 12 
11 13 
11 14 
11 15 
11 16 
11 19 
11 27 
11 37 
11 42 
11 54 
11 57 
11 60 
11 77 
11 78 
11 89 
11 96 
11 97 
11 106 
11 108 
11 117 
11 120 
11 125 
11 130 
11 131 
11 137 
11 145 
11 150 
11 151 
11 152 
11 153 
11 160 
11 163 
11 164 
11 165 
11 166 
12 13 
12 14 
12 15 
12 16 
12 17 
12 29 
12 40 
12 46 
12 52 
12 68 
12 80 
12 81 
12 88 
12 89 
12 95 
12 99 
12 108 
12 112 
12 119 
12 120 
12 124 
12 127 
12 132 
12 137 
12 139 
12 146 
12 154 
12 157 
12 158 
12 159 
12 161 
12 172 
12 175 
12 176 
13 14 
13 15 
13 16 
13 21 
13 29 
13 41 
13 43 
13 56 
13 57 
13 64 
13 69 
13 74 
13 75 
13 83 
13 90 
13 105 
13 110 
13 117 
13 118 
13 126 
13 132 
13 142 
13 143 
13 147 
13 148 
13 152 
13 155 
13 158 
13 160 
13 161 
13 162 
13 170 
13 171 
14 15 
14 16 
14 20 
14 31 
14 36 
14 43 
14 48 
14 53 
14 68 
14 70 
14 79 
14 82 
14 93 
14 101 
14 103 
14 111 
14 127 
14 128 
14 134 
14 135 
14 139 
14 140 
14 142 
14 143 
14 147 
14 151 
14 153 
14 156 
14 164 
14 165 
14 168 
14 175 
15 16 
15 30 
15 31 
15 42 
15 45 
15 51 
15 58 
15 59 
15 69 
15 78 
15 87 
15 91 
15 101 
15 102 
15 109 
15 110 
15 113 
15 119 
15 123 
15 130 
15 134 
15 136 
15 149 
15 154 
15 155 
15 162 
15 166 
15 169 
15 173 
15 175 
15 176 
16 22 
16 27 
16 38 
16 44 
16 55 
16 56 
16 65 
16 66 
16 73 
16 80 
16 84 
16 93 
16 100 
16 102 
16 116 
16 125 
16 126 
16 135 
16 138 
16 144 
16 146 
16 153 
16 161 
16 166 
16 167 
16 168 
16 171 
16 173 
16 174 
16 176 
17 18 
17 19 
17 20 
17 21 
17 22 
17 23 
17 24 
17 25 
17 26 
17 27 
17 28 
17 29 
17 30 
17 31 
17 32 
17 33 
17 34 
17 35 
17 36 
17 37 
17 38 
17 39 
17 40 
17 41 
17 42 
17 43 
17 44 
17 45 
17 52 
17 68 
17 80 
17 89 
17 99 
17 108 
17 119 
17 124 
17 132 
17 139 
17 146 
17 154 
17 158 
17 159 
18 19 
18 20 
18 21 
18 22 
18 23 
18 24 
18 25 
18 26 
18 27 
18 28 
18 29 
18 30 
18 31 
18 32 
18 34 
18 46 
18 47 
18 48 
18 49 
18 50 
18 51 
18 52 
18 53 
18 54 
18 55 
18 56 
18 57 
18 58 
18 70 
18 92 
18 99 
18 104 
18 121 
18 140 
18 144 
18 145 
18 157 
18 162 
18 163 
18 169 
18 171 
19 20 
19 21 
19 22 
19 23 
19 24 
19 25 
19 26 
19 27 
19 28 
19 29 
19 30 
19 31 
19 33 
19 42 
19 46 
19 57 
19 59 
19 60 
19 61 
19 62 
19 63 
19 64 
19 65 
19 66 
19 67 
19 68 
19 69 
19 70 
19 77 
19 89 
19 96 
19 106 
19 120 
19 125 
19 131 
19 160 
19 163 
19 164 
19 165 
19 166 
20 21 
20 22 
20 23 
20 24 
20 25 
20 26 
20 27 
20 28 
20 29 
20 30 
20 31 
20 32 
20 36 
20 48 
20 60 
20 70 
20 71 
20 79 
20 83 
20 84 
20 85 
20 86 
20 87 
20 88 
20 89 
20 90 
20 91 
20 92 
20 93 
20 111 
20 128 
20 134 
20 139 
20 143 
20 147 
20 153 
20 164 
20 168 
20 175 
21 22 
21 23 
21 24 
21 25 
21 26 
21 27 
21 28 
21 29 
21 30 
21 31 
21 35 
21 41 
21 48 
21 56 
21 61 
21 64 
21 72 
21 74 
21 83 
21 90 
21 94 
21 95 
21 96 
21 97 
21 98 
21 99 
21 100 
21 101 
21 102 
21 105 
21 117 
21 142 
21 147 
21 155 
21 158 
21 160 
21 161 
21 162 
22 23 
22 24 
22 25 
22 26 
22 27 
22 28 
22 29 
22 30 
22 31 
22 38 
22 47 
22 56 
22 62 
22 66 
22 80 
22 84 
22 93 
22 94 
22 100 
22 103 
22 104 
22 105 
22 106 
22 107 
22 108 
22 109 
22 110 
22 111 
22 112 
22 116 
22 125 
22 138 
22 153 
22 167 
22 171 
22 173 
22 176 
23 24 
23 25 
23 26 
23 27 
23 28 
23 29 
23 30 
23 31 
23 35 
23 36 
23 49 
23 61 
23 63 
23 73 
23 81 
23 86 
23 103 
23 109 
23 113 
23 114 
23 115 
23 116 
23 117 
23 118 
23 119 
23 120 
23 121 
23 133 
23 141 
23 148 
23 151 
23 159 
23 160 
23 167 
23 168 
23 169 
24 25 
24 26 
24 27 
24 28 
24 29 
24 30 
24 31 
24 37 
24 39 
24 50 
24 51 
24 63 
24 65 
24 74 
24 75 
24 85 
24 86 
24 94 
24 96 
24 105 
24 113 
24 115 
24 122 
24 123 
24 124 
24 125 
24 126 
24 127 
24 128 
24 129 
24 136 
24 137 
24 138 
24 139 
24 140 
25 26 
25 27 
25 28 
25 29 
25 30 
25 31 
25 38 
25 45 
25 50 
25 58 
25 64 
25 67 
25 71 
25 76 
25 90 
25 95 
25 100 
25 104 
25 112 
25 114 
25 121 
25 128 
25 129 
25 130 
25 131 
25 132 
25 133 
25 134 
25 135 
25 150 
25 159 
25 165 
25 170 
25 174 
26 27 
26 28 
26 29 
26 30 
26 31 
26 39 
26 40 
26 52 
26 53 
26 66 
26 67 
26 76 
26 77 
26 87 
26 88 
26 97 
26 98 
26 106 
26 107 
26 114 
26 116 
26 122 
26 123 
26 136 
26 141 
26 142 
26 143 
26 144 
26 145 
26 146 
26 147 
26 148 
26 149 
27 28 
27 29 
27 30 
27 31 
27 37 
27 44 
27 54 
27 55 
27 60 
27 65 
27 73 
27 78 
27 84 
27 97 
27 102 
27 108 
27 117 
27 126 
27 130 
27 135 
27 137 
27 144 
27 145 
27 146 
27 150 
27 151 
27 152 
27 153 
27 161 
27 166 
27 168 
27 174 
28 29 
28 30 
28 31 
28 33 
28 44 
28 54 
28 55 
28 79 
28 82 
28 85 
28 91 
28 98 
28 107 
28 111 
28 115 
28 118 
28 122 
28 131 
28 133 
28 138 
28 141 
28 150 
28 154 
28 155 
28 156 
28 157 
28 158 
28 163 
28 170 
28 172 
28 173 
29 30 
29 31 
29 40 
29 43 
29 46 
29 57 
29 69 
29 75 
29 81 
29 83 
29 88 
29 95 
29 110 
29 112 
29 118 
29 120 
29 126 
29 127 
29 132 
29 137 
29 143 
29 148 
29 152 
29 157 
29 161 
29 170 
29 171 
29 172 
29 175 
29 176 
30 31 
30 41 
30 45 
30 49 
30 51 
30 59 
30 62 
30 72 
30 87 
30 92 
30 101 
30 110 
30 119 
30 123 
30 124 
30 129 
30 130 
30 149 
30 152 
30 155 
30 156 
30 164 
30 166 
30 167 
30 169 
30 172 
30 173 
30 174 
30 175 
31 42 
31 43 
31 53 
31 58 
31 68 
31 69 
31 78 
31 82 
31 91 
31 93 
31 101 
31 102 
31 103 
31 109 
31 113 
31 127 
31 134 
31 135 
31 136 
31 140 
31 142 
31 149 
31 151 
31 154 
31 156 
31 162 
31 165 
31 176 
32 33 
32 34 
32 35 
32 36 
32 37 
32 38 
32 39 
32 40 
32 41 
32 42 
32 43 
32 44 
32 45 
32 46 
32 47 
32 48 
32 49 
32 50 
32 51 
32 52 
32 53 
32 54 
32 55 
32 56 
32 57 
32 58 
32 60 
32 71 
32 83 
32 84 
32 85 
32 86 
32 87 
32 88 
32 89 
32 90 
32 91 
32 92 
32 93 
33 34 
33 35 
33 36 
33 37 
33 38 
33 39 
33 40 
33 41 
33 42 
33 43 
33 44 
33 45 
33 46 
33 55 
33 59 
33 60 
33 61 
33 62 
33 63 
33 64 
33 65 
33 66 
33 67 
33 68 
33 69 
33 70 
33 79 
33 85 
33 107 
33 118 
33 131 
33 138 
33 141 
33 150 
33 154 
33 155 
33 156 
33 157 
34 35 
34 36 
34 37 
34 38 
34 39 
34 40 
34 41 
34 42 
34 43 
34 44 
34 45 
34 47 
34 59 
34 70 
34 71 
34 72 
34 73 
34 74 
34 75 
34 76 
34 77 
34 78 
34 79 
34 80 
34 81 
34 82 
34 92 
34 99 
34 104 
34 121 
34 140 
34 144 
34 145 
34 157 
34 162 
34 163 
34 169 
34 171 
35 36 
35 37 
35 38 
35 39 
35 40 
35 41 
35 42 
35 43 
35 44 
35 45 
35 48 
35 61 
35 63 
35 72 
35 81 
35 83 
35 86 
35 94 
35 95 
35 96 
35 97 
35 98 
35 99 
35 100 
35 101 
35 102 
35 109 
35 133 
35 141 
35 148 
35 151 
35 159 
35 160 
35 167 
35 168 
35 169 
36 37 
36 38 
36 39 
36 40 
36 41 
36 42 
36 43 
36 44 
36 45 
36 48 
36 49 
36 61 
36 70 
36 73 
36 79 
36 103 
36 111 
36 113 
36 114 
36 115 
36 116 
36 117 
36 118 
36 119 
36 120 
36 121 
36 128 
36 134 
36 139 
36 143 
36 147 
36 153 
36 164 
36 168 
36 175 
37 38 
37 39 
37 40 
37 41 
37 42 
37 43 
37 44 
37 45 
37 50 
37 54 
37 60 
37 63 
37 74 
37 78 
37 85 
37 94 
37 97 
37 108 
37 113 
37 117 
37 122 
37 123 
37 124 
37 125 
37 126 
37 127 
37 128 
37 130 
37 137 
37 145 
37 150 
37 151 
37 152 
37 153 
38 39 
38 40 
38 41 
38 42 
38 43 
38 44 
38 45 
38 50 
38 56 
38 64 
38 66 
38 71 
38 80 
38 93 
38 95 
38 100 
38 104 
38 114 
38 116 
38 125 
38 129 
38 130 
38 131 
38 132 
38 133 
38 134 
38 135 
38 138 
38 153 
38 167 
38 171 
38 173 
38 176 
39 40 
39 41 
39 42 
39 43 
39 44 
39 45 
39 51 
39 53 
39 65 
39 67 
39 75 
39 77 
39 86 
39 88 
39 96 
39 98 
39 105 
39 107 
39 115 
39 116 
39 123 
39 129 
39 136 
39 137 
39 138 
39 139 
39 140 
39 145 
39 146 
39 147 
39 148 
39 149 
40 41 
40 42 
40 43 
40 44 
40 45 
40 46 
40 52 
40 66 
40 76 
40 81 
40 87 
40 88 
40 95 
40 97 
40 106 
40 112 
40 114 
40 120 
40 122 
40 127 
40 136 
40 137 
40 141 
40 142 
40 143 
40 144 
40 157 
40 161 
40 172 
40 175 
40 176 
41 42 
41 43 
41 44 
41 45 
41 49 
41 56 
41 62 
41 64 
41 72 
41 74 
41 90 
41 92 
41 105 
41 117 
41 124 
41 129 
41 142 
41 147 
41 149 
41 152 
41 155 
41 156 
41 158 
41 160 
41 161 
41 162 
41 164 
41 167 
41 172 
41 174 
42 43 
42 44 
42 45 
42 57 
42 58 
42 69 
42 77 
42 78 
42 89 
42 91 
42 96 
42 102 
42 106 
42 109 
42 113 
42 120 
42 125 
42 131 
42 134 
42 136 
42 149 
42 154 
42 160 
42 162 
42 163 
42 164 
42 165 
42 166 
42 176 
43 44 
43 45 
43 53 
43 57 
43 68 
43 69 
43 75 
43 82 
43 83 
43 93 
43 101 
43 103 
43 110 
43 118 
43 126 
43 127 
43 132 
43 135 
43 140 
43 142 
43 143 
43 148 
43 151 
43 152 
43 156 
43 165 
43 170 
43 171 
44 45 
44 54 
44 55 
44 65 
44 73 
44 82 
44 84 
44 91 
44 98 
44 102 
44 111 
44 115 
44 122 
44 126 
44 133 
44 135 
44 144 
44 146 
44 158 
44 161 
44 163 
44 166 
44 168 
44 170 
44 172 
44 173 
44 174 
45 51 
45 58 
45 59 
45 67 
45 76 
45 87 
45 90 
45 100 
45 101 
45 110 
45 112 
45 119 
45 121 
45 123 
45 128 
45 130 
45 150 
45 155 
45 159 
45 165 
45 166 
45 169 
45 170 
45 173 
45 174 
45 175 
46 47 
46 48 
46 49 
46 50 
46 51 
46 52 
46 53 
46 54 
46 55 
46 56 
46 57 
46 58 
46 59 
46 60 
46 61 
46 62 
46 63 
46 64 
46 65 
46 66 
46 67 
46 68 
46 69 
46 70 
46 81 
46 88 
46 95 
46 112 
46 120 
46 127 
46 137 
46 157 
46 161 
46 172 
46 175 
46 176 
47 48 
47 49 
47 50 
47 51 
47 52 
47 53 
47 54 
47 55 
47 56 
47 57 
47 58 
47 59 
47 62 
47 71 
47 72 
47 73 
47 74 
47 75 
47 76 
47 77 
47 78 
47 79 
47 80 
47 81 
47 82 
47 84 
47 94 
47 103 
47 104 
47 105 
47 106 
47 107 
47 108 
47 109 
47 110 
47 111 
47 112 
48 49 
48 50 
48 51 
48 52 
48 53 
48 54 
48 55 
48 56 
48 57 
48 58 
48 61 
48 70 
48 72 
48 79 
48 83 
48 94 
48 95 
48 96 
48 97 
48 98 
48 99 
48 100 
48 101 
48 102 
48 111 
48 128 
48 134 
48 139 
48 143 
48 147 
48 153 
48 164 
48 168 
48 175 
49 50 
49 51 
49 52 
49 53 
49 54 
49 55 
49 56 
49 57 
49 58 
49 61 
49 62 
49 72 
49 73 
49 92 
49 103 
49 113 
49 114 
49 115 
49 116 
49 117 
49 118 
49 119 
49 120 
49 121 
49 124 
49 129 
49 149 
49 152 
49 156 
49 164 
49 167 
49 172 
49 174 
50 51 
50 52 
50 53 
50 54 
50 55 
50 56 
50 57 
50 58 
50 63 
50 64 
50 71 
50 74 
50 85 
50 94 
50 95 
50 104 
50 113 
50 114 
50 122 
50 123 
50 124 
50 125 
50 126 
50 127 
50 128 
50 129 
50 130 
50 131 
50 132 
50 133 
50 134 
50 135 
51 52 
51 53 
51 54 
51 55 
51 56 
51 57 
51 58 
51 59 
51 65 
51 75 
51 86 
51 87 
51 96 
51 101 
51 105 
51 110 
51 115 
51 119 
51 123 
51 129 
51 130 
51 136 
51 137 
51 138 
51 139 
51 140 
51 155 
51 166 
51 169 
51 173 
51 175 
52 53 
52 54 
52 55 
52 56 
52 57 
52 58 
52 66 
52 68 
52 76 
52 80 
52 87 
52 89 
52 97 
52 99 
52 106 
52 108 
52 114 
52 119 
52 122 
52 124 
52 132 
52 136 
52 139 
52 141 
52 142 
52 143 
52 144 
52 146 
52 154 
52 158 
52 159 
53 54 
53 55 
53 56 
53 57 
53 58 
53 67 
53 68 
53 77 
53 82 
53 88 
53 93 
53 98 
53 101 
53 103 
53 107 
53 116 
53 123 
53 127 
53 135 
53 140 
53 142 
53 145 
53 146 
53 147 
53 148 
53 149 
53 151 
53 156 
53 165 
54 55 
54 56 
54 57 
54 58 
54 60 
54 78 
54 82 
54 91 
54 97 
54 98 
54 108 
54 111 
54 115 
54 117 
54 122 
54 130 
54 133 
54 137 
54 145 
54 150 
54 151 
54 152 
54 153 
54 158 
54 163 
54 170 
54 172 
54 173 
55 56 
55 57 
55 58 
55 65 
55 73 
55 79 
55 84 
55 85 
55 102 
55 107 
55 118 
55 126 
55 131 
55 135 
55 138 
55 141 
55 144 
55 146 
55 150 
55 154 
55 155 
55 156 
55 157 
55 161 
55 166 
55 168 
55 174 
56 57 
56 58 
56 64 
56 66 
56 74 
56 80 
56 90 
56 93 
56 100 
56 105 
56 116 
56 117 
56 125 
56 138 
56 142 
56 147 
56 153 
56 155 
56 158 
56 160 
56 161 
56 162 
56 167 
56 171 
56 173 
56 176 
57 58 
57 69 
57 75 
57 77 
57 83 
57 89 
57 96 
57 106 
57 110 
57 118 
57 120 
57 125 
57 126 
57 131 
57 132 
57 143 
57 148 
57 152 
57 160 
57 163 
57 164 
57 165 
57 166 
57 170 
57 171 
58 67 
58 69 
58 76 
58 78 
58 90 
58 91 
58 100 
58 102 
58 109 
58 112 
58 113 
58 121 
58 128 
58 134 
58 136 
58 149 
58 150 
58 154 
58 159 
58 162 
58 165 
58 170 
58 174 
58 176 
59 60 
59 61 
59 62 
59 63 
59 64 
59 65 
59 66 
59 67 
59 68 
59 69 
59 70 
59 71 
59 72 
59 73 
59 74 
59 75 
59 76 
59 77 
59 78 
59 79 
59 80 
59 81 
59 82 
59 87 
59 101 
59 110 
59 119 
59 123 
59 130 
59 155 
59 166 
59 169 
59 173 
59 175 
60 61 
60 62 
60 63 
60 64 
60 65 
60 66 
60 67 
60 68 
60 69 
60 70 
60 71 
60 78 
60 83 
60 84 
60 85 
60 86 
60 87 
60 88 
60 89 
60 90 
60 91 
60 92 
60 93 
60 97 
60 108 
60 117 
60 130 
60 137 
60 145 
60 150 
60 151 
60 152 
60 153 
61 62 
61 63 
61 64 
61 65 
61 66 
61 67 
61 68 
61 69 
61 70 
61 72 
61 73 
61 83 
61 94 
61 95 
61 96 
61 97 
61 98 
61 99 
61 100 
61 101 
61 102 
61 103 
61 113 
61 114 
61 115 
61 116 
61 117 
61 118 
61 119 
61 120 
61 121 
62 63 
62 64 
62 65 
62 66 
62 67 
62 68 
62 69 
62 70 
62 72 
62 84 
62 92 
62 94 
62 103 
62 104 
62 105 
62 106 
62 107 
62 108 
62 109 
62 110 
62 111 
62 112 
62 124 
62 129 
62 149 
62 152 
62 156 
62 164 
62 167 
62 172 
62 174 
63 64 
63 65 
63 66 
63 67 
63 68 
63 69 
63 70 
63 74 
63 81 
63 85 
63 86 
63 94 
63 109 
63 113 
63 122 
63 123 
63 124 
63 125 
63 126 
63 127 
63 128 
63 133 
63 141 
63 148 
63 151 
63 159 
63 160 
63 167 
63 168 
63 169 
64 65 
64 66 
64 67 
64 68 
64 69 
64 70 
64 71 
64 74 
64 90 
64 95 
64 104 
64 105 
64 114 
64 117 
64 129 
64 130 
64 131 
64 132 
64 133 
64 134 
64 135 
64 142 
64 147 
64 155 
64 158 
64 160 
64 161 
64 162 
65 66 
65 67 
65 68 
65 69 
65 70 
65 73 
65 75 
65 84 
65 86 
65 96 
65 102 
65 105 
65 115 
65 126 
65 129 
65 135 
65 136 
65 137 
65 138 
65 139 
65 140 
65 144 
65 146 
65 161 
65 166 
65 168 
65 174 
66 67 
66 68 
66 69 
66 70 
66 76 
66 80 
66 87 
66 93 
66 97 
66 100 
66 106 
66 114 
66 116 
66 122 
66 125 
66 136 
66 138 
66 141 
66 142 
66 143 
66 144 
66 153 
66 167 
66 171 
66 173 
66 176 
67 68 
67 69 
67 70 
67 76 
67 77 
67 88 
67 90 
67 98 
67 100 
67 107 
67 112 
67 116 
67 121 
67 123 
67 128 
67 145 
67 146 
67 147 
67 148 
67 149 
67 150 
67 159 
67 165 
67 170 
67 174 
68 69 
68 70 
68 80 
68 82 
68 89 
68 93 
68 99 
68 101 
68 103 
68 108 
68 119 
68 124 
68 127 
68 132 
68 135 
68 139 
68 140 
68 142 
68 146 
68 151 
68 154 
68 156 
68 158 
68 159 
68 165 
69 70 
69 75 
69 78 
69 83 
69 91 
69 102 
69 109 
69 110 
69 113 
69 118 
69 126 
69 132 
69 134 
69 136 
69 143 
69 148 
69 149 
69 152 
69 154 
69 162 
69 170 
69 171 
69 176 
70 79 
70 92 
70 99 
70 104 
70 111 
70 121 
70 128 
70 134 
70 139 
70 140 
70 143 
70 144 
70 145 
70 147 
70 153 
70 157 
70 162 
70 163 
70 164 
70 168 
70 169 
70 171 
70 175 
71 72 
71 73 
71 74 
71 75 
71 76 
71 77 
71 78 
71 79 
71 80 
71 81 
71 82 
71 83 
71 84 
71 85 
71 86 
71 87 
71 88 
71 89 
71 90 
71 91 
71 92 
71 93 
71 95 
71 104 
71 114 
71 129 
71 130 
71 131 
71 132 
71 133 
71 134 
71 135 
72 73 
72 74 
72 75 
72 76 
72 77 
72 78 
72 79 
72 80 
72 81 
72 82 
72 83 
72 92 
72 94 
72 95 
72 96 
72 97 
72 98 
72 99 
72 100 
72 101 
72 102 
72 124 
72 129 
72 149 
72 152 
72 156 
72 164 
72 167 
72 172 
72 174 
73 74 
73 75 
73 76 
73 77 
73 78 
73 79 
73 80 
73 81 
73 82 
73 84 
73 102 
73 103 
73 113 
73 114 
73 115 
73 116 
73 117 
73 118 
73 119 
73 120 
73 121 
73 126 
73 135 
73 144 
73 146 
73 161 
73 166 
73 168 
73 174 
74 75 
74 76 
74 77 
74 78 
74 79 
74 80 
74 81 
74 82 
74 85 
74 90 
74 94 
74 105 
74 113 
74 117 
74 122 
74 123 
74 124 
74 125 
74 126 
74 127 
74 128 
74 142 
74 147 
74 155 
74 158 
74 160 
74 161 
74 162 
75 76 
75 77 
75 78 
75 79 
75 80 
75 81 
75 82 
75 83 
75 86 
75 96 
75 105 
75 110 
75 115 
75 118 
75 126 
75 129 
75 132 
75 136 
75 137 
75 138 
75 139 
75 140 
75 143 
75 148 
75 152 
75 170 
75 171 
76 77 
76 78 
76 79 
76 80 
76 81 
76 82 
76 87 
76 90 
76 97 
76 100 
76 106 
76 112 
76 114 
76 121 
76 122 
76 128 
76 136 
76 141 
76 142 
76 143 
76 144 
76 150 
76 159 
76 165 
76 170 
76 174 
77 78 
77 79 
77 80 
77 81 
77 82 
77 88 
77 89 
77 96 
77 98 
77 106 
77 107 
77 116 
77 120 
77 123 
77 125 
77 131 
77 145 
77 146 
77 147 
77 148 
77 149 
77 160 
77 163 
77 164 
77 165 
77 166 
78 79 
78 80 
78 81 
78 82 
78 91 
78 97 
78 102 
78 108 
78 109 
78 113 
78 117 
78 130 
78 134 
78 136 
78 137 
78 145 
78 149 
78 150 
78 151 
78 152 
78 153 
78 154 
78 162 
78 176 
79 80 
79 81 
79 82 
79 85 
79 107 
79 111 
79 118 
79 128 
79 131 
79 134 
79 138 
79 139 
79 141 
79 143 
79 147 
79 150 
79 153 
79 154 
79 155 
79 156 
79 157 
79 164 
79 168 
79 175 
80 81 
80 82 
80 89 
80 93 
80 99 
80 100 
80 108 
80 116 
80 119 
80 124 
80 125 
80 132 
80 138 
80 139 
80 146 
80 153 
80 154 
80 158 
80 159 
80 167 
80 171 
80 173 
80 176 
81 82 
81 86 
81 88 
81 95 
81 109 
81 112 
81 120 
81 127 
81 133 
81 137 
81 141 
81 148 
81 151 
81 157 
81 159 
81 160 
81 161 
81 167 
81 168 
81 169 
81 172 
81 175 
81 176 
82 91 
82 93 
82 98 
82 101 
82 103 
82 111 
82 115 
82 122 
82 127 
82 133 
82 135 
82 140 
82 142 
82 151 
82 156 
82 158 
82 163 
82 165 
82 170 
82 172 
82 173 
83 84 
83 85 
83 86 
83 87 
83 88 
83 89 
83 90 
83 91 
83 92 
83 93 
83 94 
83 95 
83 96 
83 97 
83 98 
83 99 
83 100 
83 101 
83 102 
83 110 
83 118 
83 126 
83 132 
83 143 
83 148 
83 152 
83 170 
83 171 
84 85 
84 86 
84 87 
84 88 
84 89 
84 90 
84 91 
84 92 
84 93 
84 94 
84 102 
84 103 
84 104 
84 105 
84 106 
84 107 
84 108 
84 109 
84 110 
84 111 
84 112 
84 126 
84 135 
84 144 
84 146 
84 161 
84 166 
84 168 
84 174 
85 86 
85 87 
85 88 
85 89 
85 90 
85 91 
85 92 
85 93 
85 94 
85 107 
85 113 
85 118 
85 122 
85 123 
85 124 
85 125 
85 126 
85 127 
85 128 
85 131 
85 138 
85 141 
85 150 
85 154 
85 155 
85 156 
85 157 
86 87 
86 88 
86 89 
86 90 
86 91 
86 92 
86 93 
86 96 
86 105 
86 109 
86 115 
86 129 
86 133 
86 136 
86 137 
86 138 
86 139 
86 140 
86 141 
86 148 
86 151 
86 159 
86 160 
86 167 
86 168 
86 169 
87 88 
87 89 
87 90 
87 91 
87 92 
87 93 
87 97 
87 101 
87 106 
87 110 
87 114 
87 119 
87 122 
87 123 
87 130 
87 136 
87 141 
87 142 
87 143 
87 144 
87 155 
87 166 
87 169 
87 173 
87 175 
88 89 
88 90 
88 91 
88 92 
88 93 
88 95 
88 98 
88 107 
88 112 
88 116 
88 120 
88 123 
88 127 
88 137 
88 145 
88 146 
88 147 
88 148 
88 149 
88 157 
88 161 
88 172 
88 175 
88 176 
89 90 
89 91 
89 92 
89 93 
89 96 
89 99 
89 106 
89 108 
89 119 
89 120 
89 124 
89 125 
89 131 
89 132 
89 139 
89 146 
89 154 
89 158 
89 159 
89 160 
89 163 
89 164 
89 165 
89 166 
90 91 
90 92 
90 93 
90 100 
90 105 
90 112 
90 117 
90 121 
90 128 
90 142 
90 147 
90 150 
90 155 
90 158 
90 159 
90 160 
90 161 
90 162 
90 165 
90 170 
90 174 
91 92 
91 93 
91 98 
91 102 
91 109 
91 111 
91 113 
91 115 
91 122 
91 133 
91 134 
91 136 
91 149 
91 154 
91 158 
91 162 
91 163 
91 170 
91 172 
91 173 
91 176 
92 93 
92 99 
92 104 
92 121 
92 124 
92 129 
92 140 
92 144 
92 145 
92 149 
92 152 
92 156 
92 157 
92 162 
92 163 
92 164 
92 167 
92 169 
92 171 
92 172 
92 174 
93 100 
93 101 
93 103 
93 116 
93 125 
93 127 
93 135 
93 138 
93 140 
93 142 
93 151 
93 153 
93 156 
93 165 
93 167 
93 171 
93 173 
93 176 
94 95 
94 96 
94 97 
94 98 
94 99 
94 100 
94 101 
94 102 
94 103 
94 104 
94 105 
94 106 
94 107 
94 108 
94 109 
94 110 
94 111 
94 112 
94 113 
94 122 
94 123 
94 124 
94 125 
94 126 
94 127 
94 128 
95 96 
95 97 
95 98 
95 99 
95 100 
95 101 
95 102 
95 104 
95 112 
95 114 
95 120 
95 127 
95 129 
95 130 
95 131 
95 132 
95 133 
95 134 
95 135 
95 137 
95 157 
95 161 
95 172 
95 175 
95 176 
96 97 
96 98 
96 99 
96 100 
96 101 
96 102 
96 105 
96 106 
96 115 
96 120 
96 125 
96 129 
96 131 
96 136 
96 137 
96 138 
96 139 
96 140 
96 160 
96 163 
96 164 
96 165 
96 166 
97 98 
97 99 
97 100 
97 101 
97 102 
97 106 
97 108 
97 114 
97 117 
97 122 
97 130 
97 136 
97 137 
97 141 
97 142 
97 143 
97 144 
97 145 
97 150 
97 151 
97 152 
97 153 
98 99 
98 100 
98 101 
98 102 
98 107 
98 111 
98 115 
98 116 
98 122 
98 123 
98 133 
98 145 
98 146 
98 147 
98 148 
98 149 
98 158 
98 163 
98 170 
98 172 
98 173 
99 100 
99 101 
99 102 
99 104 
99 108 
99 119 
99 121 
99 124 
99 132 
99 139 
99 140 
99 144 
99 145 
99 146 
99 154 
99 157 
99 158 
99 159 
99 162 
99 163 
99 169 
99 171 
100 101 
100 102 
100 112 
100 116 
100 121 
100 125 
100 128 
100 138 
100 150 
100 153 
100 159 
100 165 
100 167 
100 170 
100 171 
100 173 
100 174 
100 176 
101 102 
101 103 
101 110 
101 119 
101 123 
101 127 
101 130 
101 135 
101 140 
101 142 
101 151 
101 155 
101 156 
101 165 
101 166 
101 169 
101 173 
101 175 
102 109 
102 113 
102 126 
102 134 
102 135 
102 136 
102 144 
102 146 
102 149 
102 154 
102 161 
102 162 
102 166 
102 168 
102 174 
102 176 
103 104 
103 105 
103 106 
103 107 
103 108 
103 109 
103 110 
103 111 
103 112 
103 113 
103 114 
103 115 
103 116 
103 117 
103 118 
103 119 
103 120 
103 121 
103 127 
103 135 
103 140 
103 142 
103 151 
103 156 
103 165 
104 105 
104 106 
104 107 
104 108 
104 109 
104 110 
104 111 
104 112 
104 114 
104 121 
104 129 
104 130 
104 131 
104 132 
104 133 
104 134 
104 135 
104 140 
104 144 
104 145 
104 157 
104 162 
104 163 
104 169 
104 171 
105 106 
105 107 
105 108 
105 109 
105 110 
105 111 
105 112 
105 115 
105 117 
105 129 
105 136 
105 137 
105 138 
105 139 
105 140 
105 142 
105 147 
105 155 
105 158 
105 160 
105 161 
105 162 
106 107 
106 108 
106 109 
106 110 
106 111 
106 112 
106 114 
106 120 
106 122 
106 125 
106 131 
106 136 
106 141 
106 142 
106 143 
106 144 
106 160 
106 163 
106 164 
106 165 
106 166 
107 108 
107 109 
107 110 
107 111 
107 112 
107 116 
107 118 
107 123 
107 131 
107 138 
107 141 
107 145 
107 146 
107 147 
107 148 
107 149 
107 150 
107 154 
107 155 
107 156 
107 157 
108 109 
108 110 
108 111 
108 112 
108 117 
108 119 
108 124 
108 130 
108 132 
108 137 
108 139 
108 145 
108 146 
108 150 
108 151 
108 152 
108 153 
108 154 
108 158 
108 159 
109 110 
109 111 
109 112 
109 113 
109 133 
109 134 
109 136 
109 141 
109 148 
109 149 
109 151 
109 154 
109 159 
109 160 
109 162 
109 167 
109 168 
109 169 
109 176 
110 111 
110 112 
110 118 
110 119 
110 123 
110 126 
110 130 
110 132 
110 143 
110 148 
110 152 
110 155 
110 166 
110 169 
110 170 
110 171 
110 173 
110 175 
111 112 
111 115 
111 122 
111 128 
111 133 
111 134 
111 139 
111 143 
111 147 
111 153 
111 158 
111 163 
111 164 
111 168 
111 170 
111 172 
111 173 
111 175 
112 120 
112 121 
112 127 
112 128 
112 137 
112 150 
112 157 
112 159 
112 161 
112 165 
112 170 
112 172 
112 174 
112 175 
112 176 
113 114 
113 115 
113 116 
113 117 
113 118 
113 119 
113 120 
113 121 
113 122 
113 123 
113 124 
113 125 
113 126 
113 127 
113 128 
113 134 
113 136 
113 149 
113 154 
113 162 
113 176 
114 115 
114 116 
114 117 
114 118 
114 119 
114 120 
114 121 
114 122 
114 129 
114 130 
114 131 
114 132 
114 133 
114 134 
114 135 
114 136 
114 141 
114 142 
114 143 
114 144 
115 116 
115 117 
115 118 
115 119 
115 120 
115 121 
115 122 
115 129 
115 133 
115 136 
115 137 
115 138 
115 139 
115 140 
115 158 
115 163 
115 170 
115 172 
115 173 
116 117 
116 118 
116 119 
116 120 
116 121 
116 123 
116 125 
116 138 
116 145 
116 146 
116 147 
116 148 
116 149 
116 153 
116 167 
116 171 
116 173 
116 176 
117 118 
117 119 
117 120 
117 121 
117 130 
117 137 
117 142 
117 145 
117 147 
117 150 
117 151 
117 152 
117 153 
117 155 
117 158 
117 160 
117 161 
117 162 
118 119 
118 120 
118 121 
118 126 
118 131 
118 132 
118 138 
118 141 
118 143 
118 148 
118 150 
118 152 
118 154 
118 155 
118 156 
118 157 
118 170 
118 171 
119 120 
119 121 
119 123 
119 124 
119 130 
119 132 
119 139 
119 146 
119 154 
119 155 
119 158 
119 159 
119 166 
119 169 
119 173 
119 175 
120 121 
120 125 
120 127 
120 131 
120 137 
120 157 
120 160 
120 161 
120 163 
120 164 
120 165 
120 166 
120 172 
120 175 
120 176 
121 128 
121 140 
121 144 
121 145 
121 150 
121 157 
121 159 
121 162 
121 163 
121 165 
121 169 
121 170 
121 171 
121 174 
122 123 
122 124 
122 125 
122 126 
122 127 
122 128 
122 133 
122 136 
122 141 
122 142 
122 143 
122 144 
122 158 
122 163 
122 170 
122 172 
122 173 
123 124 
123 125 
123 126 
123 127 
123 128 
123 130 
123 145 
123 146 
123 147 
123 148 
123 149 
123 155 
123 166 
123 169 
123 173 
123 175 
124 125 
124 126 
124 127 
124 128 
124 129 
124 132 
124 139 
124 146 
124 149 
124 152 
124 154 
124 156 
124 158 
124 159 
124 164 
124 167 
124 172 
124 174 
125 126 
125 127 
125 128 
125 131 
125 138 
125 153 
125 160 
125 163 
125 164 
125 165 
125 166 
125 167 
125 171 
125 173 
125 176 
126 127 
126 128 
126 132 
126 135 
126 143 
126 144 
126 146 
126 148 
126 152 
126 161 
126 166 
126 168 
126 170 
126 171 
126 174 
127 128 
127 135 
127 137 
127 140 
127 142 
127 151 
127 156 
127 157 
127 161 
127 165 
127 172 
127 175 
127 176 
128 134 
128 139 
128 143 
128 147 
128 150 
128 153 
128 159 
128 164 
128 165 
128 168 
128 170 
128 174 
128 175 
129 130 
129 131 
129 132 
129 133 
129 134 
129 135 
129 136 
129 137 
129 138 
129 139 
129 140 
129 149 
129 152 
129 156 
129 164 
129 167 
129 172 
129 174 
130 131 
130 132 
130 133 
130 134 
130 135 
130 137 
130 145 
130 150 
130 151 
130 152 
130 153 
130 155 
130 166 
130 169 
130 173 
130 175 
131 132 
131 133 
131 134 
131 135 
131 138 
131 141 
131 150 
131 154 
131 155 
131 156 
131 157 
131 160 
131 163 
131 164 
131 165 
131 166 
132 133 
132 134 
132 135 
132 139 
132 143 
132 146 
132 148 
132 152 
132 154 
132 158 
132 159 
132 170 
132 171 
133 134 
133 135 
133 141 
133 148 
133 151 
133 158 
133 159 
133 160 
133 163 
133 167 
133 168 
133 169 
133 170 
133 172 
133 173 
134 135 
134 136 
134 139 
134 143 
134 147 
134 149 
134 153 
134 154 
134 162 
134 164 
134 168 
134 175 
134 176 
135 140 
135 142 
135 144 
135 146 
135 151 
135 156 
135 161 
135 165 
135 166 
135 168 
135 174 
136 137 
136 138 
136 139 
136 140 
136 141 
136 142 
136 143 
136 144 
136 149 
136 154 
136 162 
136 176 
137 138 
137 139 
137 140 
137 145 
137 150 
137 151 
137 152 
137 153 
137 157 
137 161 
137 172 
137 175 
137 176 
138 139 
138 140 
138 141 
138 150 
138 153 
138 154 
138 155 
138 156 
138 157 
138 167 
138 171 
138 173 
138 176 
139 140 
139 143 
139 146 
139 147 
139 153 
139 154 
139 158 
139 159 
139 164 
139 168 
139 175 
140 142 
140 144 
140 145 
140 151 
140 156 
140 157 
140 162 
140 163 
140 165 
140 169 
140 171 
141 142 
141 143 
141 144 
141 148 
141 150 
141 151 
141 154 
141 155 
141 156 
141 157 
141 159 
141 160 
141 167 
141 168 
141 169 
142 143 
142 144 
142 147 
142 151 
142 155 
142 156 
142 158 
142 160 
142 161 
142 162 
142 165 
143 144 
143 147 
143 148 
143 152 
143 153 
143 164 
143 168 
143 170 
143 171 
143 175 
144 145 
144 146 
144 157 
144 161 
144 162 
144 163 
144 166 
144 168 
144 169 
144 171 
144 174 
145 146 
145 147 
145 148 
145 149 
145 150 
145 151 
145 152 
145 153 
145 157 
145 162 
145 163 
145 169 
145 171 
146 147 
146 148 
146 149 
146 154 
146 158 
146 159 
146 161 
146 166 
146 168 
146 174 
147 148 
147 149 
147 153 
147 155 
147 158 
147 160 
147 161 
147 162 
147 164 
147 168 
147 175 
148 149 
148 151 
148 152 
148 159 
148 160 
148 167 
148 168 
148 169 
148 170 
148 171 
149 152 
149 154 
149 156 
149 162 
149 164 
149 167 
149 172 
149 174 
149 176 
150 151 
150 152 
150 153 
150 154 
150 155 
150 156 
150 157 
150 159 
150 165 
150 170 
150 174 
151 152 
151 153 
151 156 
151 159 
151 160 
151 165 
151 167 
151 168 
151 169 
152 153 
152 156 
152 164 
152 167 
152 170 
152 171 
152 172 
152 174 
153 164 
153 167 
153 168 
153 171 
153 173 
153 175 
153 176 
154 155 
154 156 
154 157 
154 158 
154 159 
154 162 
154 176 
155 156 
155 157 
155 158 
155 160 
155 161 
155 162 
155 166 
155 169 
155 173 
155 175 
156 157 
156 164 
156 165 
156 167 
156 172 
156 174 
157 161 
157 162 
157 163 
157 169 
157 171 
157 172 
157 175 
157 176 
158 159 
158 160 
158 161 
158 162 
158 163 
158 170 
158 172 
158 173 
159 160 
159 165 
159 167 
159 168 
159 169 
159 170 
159 174 
160 161 
160 162 
160 163 
160 164 
160 165 
160 166 
160 167 
160 168 
160 169 
161 162 
161 166 
161 168 
161 172 
161 174 
161 175 
161 176 
162 163 
162 169 
162 171 
162 176 
163 164 
163 165 
163 166 
163 169 
163 170 
163 171 
163 172 
163 173 
164 165 
164 166 
164 167 
164 168 
164 172 
164 174 
164 175 
165 166 
165 170 
165 174 
166 168 
166 169 
166 173 
166 174 
166 175 
167 168 
167 169 
167 171 
167 172 
167 173 
167 174 
167 176 
168 169 
168 174 
168 175 
169 171 
169 173 
169 175 
170 171 
170 172 
170 173 
170 174 
171 173 
171 176 
172 173 
172 174 
172 175 
172 176 
173 175 
173 176 
175 176 
